D4 LOG: Running /Users/bryant/repos/d4/d4 ./mc2022_track1_015.cnf -dDNNF -out=./mc2022_track1_015.cnnf -drat=./mc2022_track1_015.drat
D4 LOG: Time limit 1000 seconds
c [33mBenchmark Information[0m
c Number of variables: 200
c Number of clauses: 564
c Number of literals: 1364
c Preproc options: 
c
c Preproc time: 0.000142
c Integer mode 
c
c [1m[32mOption list [0m
c Caching: 1
c Reduce cache procedure level: 20
c Strategy for Reducing the cache: 0
c Cache representation: CL
c Part of the formula that is cached: NT
c Variable heuristic: VSADS
c Phase heuristic: TRUE
c Partitioning heuristic: CB + graph reduction + equivalence simplication
c
c ----------------------------------------------------------------------------------------------------------------------------------------------------------
c   #compile |       time |    #posHit |    #negHit |     #split |    Mem(MB) |     #nodes |     #edges | #equivCall | #Dec. Node | #paritioner |  limit dyn | 
c ----------------------------------------------------------------------------------------------------------------------------------------------------------
c top 5: -9 
c unitLits 1048577 4194308 Bytes
c freeVariables 1048577
c top 5: -9 
c top 5: -9 -83 
c top 5: 9 
c top 5: 9 
c top 5: 9 119 
c top 5: -42 
c top 5: -42 
c top 5: 131 
c ----------------------------------------------------------------------------------------------------------------------------------------------------------
c
c [1m[31mStatistics [0m
c [33mCompilation Information[0m
c Number of compiled node: 41
c Number of split formula: 17
c Number of decision node: 20
c Number of node built on domain constraints: 0
c Number of decomposable AND nodes: 4
c Number of backbone calls: 0
c Number of partitioner calls: 0
c Average number of assigned literal to obtain decomposable AND nodes: 162.50/200
c Minimum number of assigned variable where a decomposable AND appeared: 161
c 
c [33mGraph Information[0m
c Number of nodes: 103
c Number of edges: 136
c 
c [1m[34mCache Information[0m
c Memory used: 569 MB
c
c Number of positive hit: 0
c Number of negative hit: 20
c Number of reduceCall: 0
c
c Final time: 0.000102
c 
s 0.000000
D4 LOG: Elapsed time = 0.012 seconds
D4 OUTCOME: normal
mc2022_track1_015. D4 NNF LOG: size ./mc2022_track1_015.cnnf 84 lines 1860 bytes
mc2022_track1_015. D4 DRAT LOG: size ./mc2022_track1_015.drat 553 lines 4049 bytes
DTRIM LOG: Running /Users/bryant/repos/drat-trim/drat-trim ./mc2022_track1_015.cnf ./mc2022_track1_015.drat -f -U
DTRIM LOG: Time limit 1000 seconds

c parsing input formula with 200 variables and 564 clauses

c finished parsing

c start forward verification

c 85 of 564 clauses in core                            

c 1 of 358 lemmas in core using 116 resolution steps

c 0 RAT lemmas in core; 0 redundant literals in core lemmas

c optimized proofs are not supported for forward checking

c VERIFIED derivation: all lemmas preserve satisfiability

c WARNING: no empty clause detected, this is not a refutation

s DERIVATION

c verification time: 0.024 seconds
DTRIM LOG: Elapsed time = 0.026 seconds
DTRIM OUTCOME: normal
CHECK LOG: Running /Users/bryant/repos/d4/certificator ./mc2022_track1_015.cnf ./mc2022_track1_015.cnnf ./mc2022_track1_015.drat
CHECK LOG: Time limit 1000 seconds
c CNF information
c Number of variables: 200
c Number of clauses: 564
c
c DRAT information
c Number of drat clauses: 357
c
c DDnnf parsing: 0.000
c DDnnf checked: 0.000
c
c Global time: 0.000
CHECK LOG: Elapsed time = 0.002 seconds
CHECK OUTCOME: normal
OVERALL LOG: Elapsed time = 0.041 seconds
OVERALL OUTCOME: normal
